
N = 10;
C = 9;

dots = 
  [| 0, 0, 0, 0, 0, 0, 0, 0, 0, 0,
   | 0, o, 0, 0, 0, g, b, p, v, 0,
   | 0, 0, 0, y, 0, 0, 0, 0, 0, 0,
   | 0, 0, 0, 0, 0, s, 0, 0, 0, 0,
   | c, 0, 0, 0, 0, r, 0, p, 0, 0,
   | 0, 0, 0, 0, 0, 0, 0, 0, 0, 0,
   | 0, 0, 0, 0, 0, r, y, 0, 0, 0,
   | 0, g, o, 0, b, 0, 0, s, 0, 0,
   | 0, 0, 0, 0, 0, 0, v, 0, 0, 0,
   | c, 0, 0, 0, 0, 0, 0, 0, 0, 0,
   |];
